1060717
59,19,94,17,26,40,51,25,78,79,29,12,73,22,84,65,54,98,23,11,28,34,71,46,82,15,61,58,16,88,50,36,72,44,55,31,80,99,68,63,13,32,70,74,48,37,1,38,76,83,42,35,97,67,27,2,64,5,3,89,85,8,53,91,75,69,6,41,18,10,93,60,62,49,56,77,96,30,21,20,9,33,57,47,95,66,4,45,87,7,81,86,14,39,92,52,24,43,90